This is Ipopt version 3.14.11, running with linear solver MUMPS 5.4.1.

Number of nonzeros in equality constraint Jacobian...:        0
Number of nonzeros in inequality constraint Jacobian.:      260
Number of nonzeros in Lagrangian Hessian.............:       55

Total number of variables............................:       10
                     variables with only lower bounds:        0
                variables with lower and upper bounds:       10
                     variables with only upper bounds:        0
Total number of equality constraints.................:        0
Total number of inequality constraints...............:       26
        inequality constraints with only lower bounds:       26
   inequality constraints with lower and upper bounds:        0
        inequality constraints with only upper bounds:        0

iter    objective    inf_pr   inf_du lg(mu)  ||d||  lg(rg) alpha_du alpha_pr  ls
   0 -7.9092301e+05 2.44e+00 1.15e+00  -1.0 0.00e+00    -  0.00e+00 0.00e+00   0
   1 -7.8972283e+05 2.39e+00 1.56e+02  -1.0 6.61e+00    -  4.80e-01 2.25e-02h  1
   2 -7.4486945e+05 2.36e-01 5.96e+02  -1.0 3.14e+01    -  1.67e-01 8.86e-01H  1
   3 -7.4092337e+05 3.76e-02 7.16e+01  -1.0 5.80e-01   0.0 9.89e-01 8.80e-01h  1
   4 -7.3958554e+05 0.00e+00 3.05e+00  -1.0 1.18e+01    -  1.00e+00 1.00e+00F  1
   5 -7.3753178e+05 0.00e+00 1.54e-01  -1.0 2.03e+01    -  1.00e+00 1.00e+00F  1
   6 -7.4099991e+05 0.00e+00 1.17e-02  -2.5 1.09e+00    -  9.80e-01 9.96e-01h  1
   7 -7.4099411e+05 0.00e+00 2.07e-02  -2.5 9.13e+00    -  1.00e+00 1.00e+00H  1
   8 -7.4137324e+05 0.00e+00 3.95e-03  -2.5 2.58e+00    -  1.00e+00 1.00e+00H  1
   9 -7.4154202e+05 3.26e-04 9.67e-04  -3.8 6.54e+00    -  8.91e-01 1.00e+00H  1
iter    objective    inf_pr   inf_du lg(mu)  ||d||  lg(rg) alpha_du alpha_pr  ls
  10 -7.4156988e+05 8.17e-06 1.23e-03  -3.8 1.99e+00    -  1.00e+00 1.00e+00H  1
  11 -7.4158242e+05 6.62e-05 3.21e-04  -5.7 4.77e-01    -  8.46e-01 9.48e-01H  1
  12 -7.4158538e+05 7.92e-06 3.24e-05  -5.7 5.98e-02    -  1.00e+00 1.00e+00H  1
  13 -7.4158538e+05 0.00e+00 4.42e-06  -5.7 2.58e-02    -  1.00e+00 1.00e+00H  1
  14 -7.4158543e+05 5.29e-06 4.87e-07  -8.6 6.83e-03    -  9.99e-01 1.00e+00h  1
  15 -7.4158553e+05 2.49e-08 2.53e-09  -8.6 5.47e-04    -  1.00e+00 1.00e+00h  1
  16 -7.4158553e+05 0.00e+00 1.95e-11  -8.6 2.84e-06    -  1.00e+00 1.00e+00h  1

Number of Iterations....: 16

                                   (scaled)                 (unscaled)
Objective...............:  -8.1166742632151568e+01   -7.4158553248155420e+05
Dual infeasibility......:   1.9531392230691895e-11    1.7844990987437133e-07
Constraint violation....:   0.0000000000000000e+00    0.0000000000000000e+00
Variable bound violation:   9.9997007055208087e-05    9.9997007055208087e-05
Complementarity.........:   2.5059423161404168e-09    2.2895714508406515e-05
Overall NLP error.......:   2.5059423161404168e-09    2.2895714508406515e-05


Number of objective function evaluations             = 29
Number of objective gradient evaluations             = 17
Number of equality constraint evaluations            = 0
Number of inequality constraint evaluations          = 29
Number of equality constraint Jacobian evaluations   = 0
Number of inequality constraint Jacobian evaluations = 17
Number of Lagrangian Hessian evaluations             = 16
Total seconds in IPOPT                               = 0.007

EXIT: Optimal Solution Found.
